6 32 4 10
12 18 13 6 12 10 11 20 5 9 5 17 14 17 13 6 13 8 16 20 14 4 3 17 11 1 8 14 8 16 10 17 
12.95 5.19 13.73 6.44 10.76 4.52 2.33 5.37 14.55 5.05 4.3 7.63 7.96 8.39 2.35 2.85 7.06 1.07 8.16 9.16 11.06 12.12 12.33 0.65 0.8 2.8 14.3 15.9 14.42 5.84 14.85 9.27 
4.13 12.79 9.14 10.58 15.72 14.6 5.34 0.84 3.88 9.91 15.03 11.29 8.72 3.35 11.1 0.96 7.44 1.5 9.48 15.59 13 15.63 10.59 1.92 15.35 5.31 11.19 12.61 1.08 6.97 15.45 12.69 
14.86 14.84 14.64 12.43 1.43 7.78 6.24 6.38 8.83 1.37 7.85 0.16 5.39 6.02 11.43 11.37 9.55 3.7 6.99 6.65 7.9 11.73 13.2 1.38 8.37 2.19 0.63 15.07 12.39 13.97 9.9 1 
15.21 10.29 9.53 10.22 10.51 11.54 12.16 1.86 10.19 5.75 6.56 8.41 7.57 0.54 3.07 15.39 5.05 12.65 15.65 3.21 5.58 3.59 11.14 4.73 14.18 6.67 14.02 9.25 8.38 6.15 10.39 5.51 
8 8 8 8 8 8 8 8 8 8 8 8 8 8 8 8 8 8 8 8 8 8 8 8 8 8 8 8 8 8 8 8 
0.55 13.75 13.81 11.36 8.76 9.29 2.34 11.85 1.9 7.92 2.61 4.39 10.14 3.15 2.56 5.52 3.91 5.37 0.19 7.3 9.51 10.26 5.66 8.87 4.99 12.26 15.31 1.54 12.76 10.39 7.59 10.46 
1 1 1 1 1 1 1 1 1 1 1 1 1 1 1 1 1 1 1 1 1 1 1 1 1 1 1 1 1 1 1 1 
1 1 1 1 1 1 1 1 1 1 1 1 1 1 1 1 1 1 1 1 1 1 1 1 1 1 1 1 1 1 1 1 
1 1 1 1 1 1 1 1 1 1 1 1 1 1 1 1 1 1 1 1 1 1 1 1 1 1 1 1 1 1 1 1 
1 1 1 1 1 1 1 1 1 1 1 1 1 1 1 1 1 1 1 1 1 1 1 1 1 1 1 1 1 1 1 1 
1 1 1 1 1 1 1 1 1 1 1 1 1 1 1 1 1 1 1 1 1 1 1 1 1 1 1 1 1 1 1 1 
1 1 1 1 1 1 1 1 1 1 1 1 1 1 1 1 1 1 1 1 1 1 1 1 1 1 1 1 1 1 1 1 
0.01 0.01 0.01 0.01 0.01 0.01 0.01 0.01 0.01 0.01 0.01 0.01 0.01 0.01 0.01 0.01 0.01 0.01 0.01 0.01 0.01 0.01 0.01 0.01 0.01 0.01 0.01 0.01 0.01 0.01 0.01 0.01 
0.02 0.02 0.02 0.02 0.02 0.02 0.02 0.02 0.02 0.02 0.02 0.02 0.02 0.02 0.02 0.02 0.02 0.02 0.02 0.02 0.02 0.02 0.02 0.02 0.02 0.02 0.02 0.02 0.02 0.02 0.02 0.02 
0.03 0.03 0.03 0.03 0.03 0.03 0.03 0.03 0.03 0.03 0.03 0.03 0.03 0.03 0.03 0.03 0.03 0.03 0.03 0.03 0.03 0.03 0.03 0.03 0.03 0.03 0.03 0.03 0.03 0.03 0.03 0.03 
0.04 0.04 0.04 0.04 0.04 0.04 0.04 0.04 0.04 0.04 0.04 0.04 0.04 0.04 0.04 0.04 0.04 0.04 0.04 0.04 0.04 0.04 0.04 0.04 0.04 0.04 0.04 0.04 0.04 0.04 0.04 0.04 
0.05 0.05 0.05 0.05 0.05 0.05 0.05 0.05 0.05 0.05 0.05 0.05 0.05 0.05 0.05 0.05 0.05 0.05 0.05 0.05 0.05 0.05 0.05 0.05 0.05 0.05 0.05 0.05 0.05 0.05 0.05 0.05 
1 1 1 1 1 1 1 1 1 1 1 1 1 1 1 1 1 1 1 1 1 1 1 1 1 1 1 1 1 1 1 1 
